(set-info :source |printed by MathSAT|)
(declare-fun call_mesi.ite7 () Int)
(declare-fun call_mesi.shared_me () Int)
(declare-fun call_mesi.ite16 () Int)
(declare-fun call_mesi.ite25 () Int)
(declare-fun call_mesi.ite26 () Int)
(declare-fun call_mesi.ite2 () Int)
(declare-fun call_mesi.garde_me4 () Bool)
(declare-fun call_mesi.ite22 () Int)
(declare-fun call_mesi.ite28 () Int)
(declare-fun call_mesi.ite6 () Int)
(declare-fun call_mesi.flby4 () Int)
(declare-fun call_mesi.ite13 () Int)
(declare-fun call_mesi.exclusive_me () Int)
(declare-fun param_etat_me3 () Bool)
(declare-fun call_mesi.modified_me () Int)
(declare-fun call_mesi.ite15 () Int)
(declare-fun call_mesi.ite18 () Int)
(declare-fun exclusive_me () Int)
(declare-fun call_mesi.garde_me3 () Bool)
(declare-fun param_etat_me2 () Bool)
(declare-fun env () Bool)
(declare-fun call_mesi.ite21 () Int)
(declare-fun call_mesi.ite17 () Int)
(declare-fun invalid_me () Int)
(declare-fun call_mesi.invalid_me () Int)
(declare-fun call_mesi.ite10 () Int)
(declare-fun call_mesi.ite11 () Int)
(declare-fun call_mesi.ite9 () Int)
(declare-fun call_Sofar.flby () Bool)
(declare-fun shared_me () Int)
(declare-fun call_Sofar.Sofar () Bool)
(declare-fun call_mesi.ite32 () Int)
(declare-fun call_mesi.ite29 () Int)
(declare-fun call_mesi.flby2 () Int)
(declare-fun call_mesi.ite3 () Int)
(declare-fun call_mesi.garde_me1 () Bool)
(declare-fun call_mesi.ite27 () Int)
(declare-fun call_mesi.ite12 () Int)
(declare-fun call_mesi.ite5 () Int)
(declare-fun call_mesi.ite30 () Int)
(declare-fun flby () Bool)
(declare-fun call_mesi.flby3 () Int)
(declare-fun call_mesi.ite24 () Int)
(declare-fun call_mesi.ite31 () Int)
(declare-fun param_etat_me1 () Bool)
(declare-fun call_mesi.ite19 () Int)
(declare-fun call_mesi.ite4 () Int)
(declare-fun param_etat_me4 () Bool)
(declare-fun call_excludes4.excludes () Bool)
(declare-fun call_mesi.ite () Int)
(declare-fun modified_me () Int)
(declare-fun call_mesi.ite20 () Int)
(declare-fun _OK_ () Bool)
(declare-fun call_mesi.ite23 () Int)
(declare-fun call_mesi.flby () Int)
(declare-fun call_mesi.ite14 () Int)
(declare-fun call_mesi.ite8 () Int)
(define-fun .def_818 () Bool (= call_Sofar.flby call_Sofar.Sofar))
(define-fun .def_813 () Bool (and param_etat_me4 param_etat_me3))
(define-fun .def_808 () Bool (and param_etat_me1 param_etat_me2))
(define-fun .def_807 () Bool (and param_etat_me3 param_etat_me1))
(define-fun .def_809 () Bool (or .def_807 .def_808))
(define-fun .def_806 () Bool (and param_etat_me4 param_etat_me1))
(define-fun .def_810 () Bool (or .def_806 .def_809))
(define-fun .def_805 () Bool (and param_etat_me3 param_etat_me2))
(define-fun .def_811 () Bool (or .def_805 .def_810))
(define-fun .def_804 () Bool (and param_etat_me4 param_etat_me2))
(define-fun .def_812 () Bool (or .def_804 .def_811))
(define-fun .def_814 () Bool (or .def_812 .def_813))
(define-fun .def_815 () Bool (not .def_814))
(define-fun .def_816 () Bool (= call_excludes4.excludes .def_815))
(define-fun .def_802 () Bool (= call_mesi.flby4 call_mesi.invalid_me))
(define-fun .def_800 () Bool (= call_mesi.flby3 call_mesi.shared_me))
(define-fun .def_798 () Bool (= call_mesi.flby2 call_mesi.exclusive_me))
(define-fun .def_796 () Bool (= call_mesi.flby call_mesi.modified_me))
(define-fun .def_792 () Bool (= call_mesi.ite30 call_mesi.ite31))
(define-fun .def_793 () Bool (or param_etat_me2 .def_792))
(define-fun .def_789 () Bool (= call_mesi.ite31 call_mesi.ite26))
(define-fun .def_771 () Bool (not param_etat_me2))
(define-fun .def_790 () Bool (or .def_771 .def_789))
(define-fun .def_785 () Bool (= call_mesi.ite22 call_mesi.ite23))
(define-fun .def_786 () Bool (or param_etat_me2 .def_785))
(define-fun .def_782 () Bool (= call_mesi.ite23 call_mesi.ite18))
(define-fun .def_783 () Bool (or .def_771 .def_782))
(define-fun .def_778 () Bool (= call_mesi.ite14 call_mesi.ite15))
(define-fun .def_779 () Bool (or param_etat_me2 .def_778))
(define-fun .def_775 () Bool (= call_mesi.ite15 call_mesi.ite10))
(define-fun .def_776 () Bool (or .def_771 .def_775))
(define-fun .def_770 () Bool (= call_mesi.ite7 call_mesi.ite2))
(define-fun .def_772 () Bool (or .def_770 .def_771))
(define-fun .def_766 () Bool (= call_mesi.ite6 call_mesi.ite7))
(define-fun .def_768 () Bool (or .def_766 param_etat_me2))
(define-fun .def_773 () Bool (and .def_768 .def_772))
(define-fun .def_777 () Bool (and .def_773 .def_776))
(define-fun .def_780 () Bool (and .def_777 .def_779))
(define-fun .def_784 () Bool (and .def_780 .def_783))
(define-fun .def_787 () Bool (and .def_784 .def_786))
(define-fun .def_791 () Bool (and .def_787 .def_790))
(define-fun .def_794 () Bool (and .def_791 .def_793))
(define-fun .def_762 () Bool (= call_mesi.ite32 call_mesi.ite31))
(define-fun .def_763 () Bool (or param_etat_me1 .def_762))
(define-fun .def_758 () Bool (= call_mesi.ite25 call_mesi.ite32))
(define-fun .def_736 () Bool (not param_etat_me1))
(define-fun .def_759 () Bool (or .def_736 .def_758))
(define-fun .def_753 () Bool (= call_mesi.ite24 call_mesi.ite23))
(define-fun .def_754 () Bool (or param_etat_me1 .def_753))
(define-fun .def_749 () Bool (= call_mesi.ite17 call_mesi.ite24))
(define-fun .def_750 () Bool (or .def_736 .def_749))
(define-fun .def_744 () Bool (= call_mesi.ite16 call_mesi.ite15))
(define-fun .def_745 () Bool (or param_etat_me1 .def_744))
(define-fun .def_740 () Bool (= call_mesi.ite9 call_mesi.ite16))
(define-fun .def_741 () Bool (or .def_736 .def_740))
(define-fun .def_735 () Bool (= call_mesi.ite call_mesi.ite8))
(define-fun .def_737 () Bool (or .def_735 .def_736))
(define-fun .def_732 () Bool (= call_mesi.ite8 call_mesi.ite7))
(define-fun .def_734 () Bool (or .def_732 param_etat_me1))
(define-fun .def_738 () Bool (and .def_734 .def_737))
(define-fun .def_742 () Bool (and .def_738 .def_741))
(define-fun .def_746 () Bool (and .def_742 .def_745))
(define-fun .def_751 () Bool (and .def_746 .def_750))
(define-fun .def_755 () Bool (and .def_751 .def_754))
(define-fun .def_760 () Bool (and .def_755 .def_759))
(define-fun .def_764 () Bool (and .def_760 .def_763))
(define-fun .def_728 () Bool (= env call_Sofar.Sofar))
(define-fun .def_725 () Bool (= invalid_me call_mesi.invalid_me))
(define-fun .def_721 () Bool (= shared_me call_mesi.shared_me))
(define-fun .def_717 () Bool (= exclusive_me call_mesi.exclusive_me))
(define-fun .def_713 () Bool (= modified_me call_mesi.modified_me))
(define-fun .def_707 () Bool (= call_mesi.ite29 call_mesi.ite30))
(define-fun .def_708 () Bool (or param_etat_me3 .def_707))
(define-fun .def_704 () Bool (= call_mesi.ite27 call_mesi.ite30))
(define-fun .def_685 () Bool (not param_etat_me3))
(define-fun .def_705 () Bool (or .def_685 .def_704))
(define-fun .def_699 () Bool (= call_mesi.ite21 call_mesi.ite22))
(define-fun .def_700 () Bool (or param_etat_me3 .def_699))
(define-fun .def_696 () Bool (= call_mesi.ite19 call_mesi.ite22))
(define-fun .def_697 () Bool (or .def_685 .def_696))
(define-fun .def_692 () Bool (= call_mesi.ite13 call_mesi.ite14))
(define-fun .def_693 () Bool (or param_etat_me3 .def_692))
(define-fun .def_689 () Bool (= call_mesi.ite11 call_mesi.ite14))
(define-fun .def_690 () Bool (or .def_685 .def_689))
(define-fun .def_684 () Bool (= call_mesi.ite3 call_mesi.ite6))
(define-fun .def_686 () Bool (or .def_684 .def_685))
(define-fun .def_681 () Bool (= call_mesi.ite5 call_mesi.ite6))
(define-fun .def_683 () Bool (or .def_681 param_etat_me3))
(define-fun .def_687 () Bool (and .def_683 .def_686))
(define-fun .def_691 () Bool (and .def_687 .def_690))
(define-fun .def_694 () Bool (and .def_691 .def_693))
(define-fun .def_698 () Bool (and .def_694 .def_697))
(define-fun .def_701 () Bool (and .def_698 .def_700))
(define-fun .def_706 () Bool (and .def_701 .def_705))
(define-fun .def_709 () Bool (and .def_706 .def_708))
(define-fun .def_677 () Bool (not env))
(define-fun .def_678 () Bool (or flby .def_677))
(define-fun .def_679 () Bool (= _OK_ .def_678))
(define-fun .def_710 () Bool (and .def_679 .def_709))
(define-fun .def_714 () Bool (and .def_710 .def_713))
(define-fun .def_718 () Bool (and .def_714 .def_717))
(define-fun .def_722 () Bool (and .def_718 .def_721))
(define-fun .def_726 () Bool (and .def_722 .def_725))
(define-fun .def_729 () Bool (and .def_726 .def_728))
(define-fun .def_765 () Bool (and .def_729 .def_764))
(define-fun .def_795 () Bool (and .def_765 .def_794))
(define-fun .def_797 () Bool (and .def_795 .def_796))
(define-fun .def_799 () Bool (and .def_797 .def_798))
(define-fun .def_801 () Bool (and .def_799 .def_800))
(define-fun .def_803 () Bool (and .def_801 .def_802))
(define-fun .def_817 () Bool (and .def_803 .def_816))
(define-fun .def_819 () Bool (and .def_817 .def_818))
(define-fun .def_673 () Bool (= call_excludes4.excludes call_Sofar.flby))
(define-fun .def_669 () Bool (= call_mesi.flby4 3))
(define-fun .def_666 () Bool (= call_mesi.flby3 0))
(define-fun .def_663 () Bool (= call_mesi.flby2 0))
(define-fun .def_660 () Bool (= call_mesi.flby 0))
(define-fun .def_655 () Bool (= call_mesi.ite20 0))
(define-fun .def_650 () Bool (not call_mesi.garde_me4))
(define-fun .def_656 () Bool (or .def_650 .def_655))
(define-fun .def_652 () Bool (= call_mesi.ite4 0))
(define-fun .def_653 () Bool (or .def_650 .def_652))
(define-fun .def_648 () Bool (= call_mesi.ite12 1))
(define-fun .def_651 () Bool (or .def_648 .def_650))
(define-fun .def_654 () Bool (and .def_651 .def_653))
(define-fun .def_657 () Bool (and .def_654 .def_656))
(define-fun .def_644 () Bool (= call_mesi.ite19 0))
(define-fun .def_637 () Bool (not call_mesi.garde_me3))
(define-fun .def_645 () Bool (or .def_637 .def_644))
(define-fun .def_640 () Bool (= call_mesi.ite3 0))
(define-fun .def_641 () Bool (or .def_637 .def_640))
(define-fun .def_635 () Bool (= call_mesi.ite11 1))
(define-fun .def_638 () Bool (or .def_635 .def_637))
(define-fun .def_642 () Bool (and .def_638 .def_641))
(define-fun .def_646 () Bool (and .def_642 .def_645))
(define-fun .def_630 () Bool (= call_mesi.ite 0))
(define-fun .def_627 () Bool (not call_mesi.garde_me1))
(define-fun .def_631 () Bool (or .def_627 .def_630))
(define-fun .def_625 () Bool (= call_mesi.ite9 0))
(define-fun .def_628 () Bool (or .def_625 .def_627))
(define-fun .def_632 () Bool (and .def_628 .def_631))
(define-fun .def_619 () Bool (= call_mesi.ite28 call_mesi.ite29))
(define-fun .def_605 () Bool (not param_etat_me4))
(define-fun .def_620 () Bool (or .def_605 .def_619))
(define-fun .def_614 () Bool (= call_mesi.ite20 call_mesi.ite21))
(define-fun .def_615 () Bool (or .def_605 .def_614))
(define-fun .def_609 () Bool (= call_mesi.ite4 call_mesi.ite5))
(define-fun .def_610 () Bool (or .def_605 .def_609))
(define-fun .def_603 () Bool (= call_mesi.ite12 call_mesi.ite13))
(define-fun .def_606 () Bool (or .def_603 .def_605))
(define-fun .def_611 () Bool (and .def_606 .def_610))
(define-fun .def_616 () Bool (and .def_611 .def_615))
(define-fun .def_621 () Bool (and .def_616 .def_620))
(define-fun .def_623 () Bool (and .def_621 flby))
(define-fun .def_633 () Bool (and .def_623 .def_632))
(define-fun .def_647 () Bool (and .def_633 .def_646))
(define-fun .def_658 () Bool (and .def_647 .def_657))
(define-fun .def_661 () Bool (and .def_658 .def_660))
(define-fun .def_664 () Bool (and .def_661 .def_663))
(define-fun .def_667 () Bool (and .def_664 .def_666))
(define-fun .def_670 () Bool (and .def_667 .def_669))
(define-fun .def_674 () Bool (and .def_670 .def_673))
(define-fun .def_820 () Bool (and .def_674 .def_819))
(assert .def_820)
